(set-info :smt-lib-version 2.6)
(set-logic QF_AX)
(set-info :source |
Benchmarks used in the followin paper:
Big proof engines as little proof engines: new results on rewrite-based satisfiability procedure
Alessandro Armando, Maria Paola Bonacina, Silvio Ranise, Stephan Schulz. 
PDPAR'05
http://www.ai.dist.unige.it/pdpar05/


|)
(set-info :category "crafted")
(set-info :status unsat)
(declare-sort Index 0)
(declare-sort Element 0)
(declare-fun a_288 () (Array Index Element))
(declare-fun a_290 () (Array Index Element))
(declare-fun a_292 () (Array Index Element))
(declare-fun a_294 () (Array Index Element))
(declare-fun a_296 () (Array Index Element))
(declare-fun a_298 () (Array Index Element))
(declare-fun a_300 () (Array Index Element))
(declare-fun a_302 () (Array Index Element))
(declare-fun a_304 () (Array Index Element))
(declare-fun a_306 () (Array Index Element))
(declare-fun a_308 () (Array Index Element))
(declare-fun a_310 () (Array Index Element))
(declare-fun a_312 () (Array Index Element))
(declare-fun a_314 () (Array Index Element))
(declare-fun a_316 () (Array Index Element))
(declare-fun a_318 () (Array Index Element))
(declare-fun a_320 () (Array Index Element))
(declare-fun a_322 () (Array Index Element))
(declare-fun a_324 () (Array Index Element))
(declare-fun a_326 () (Array Index Element))
(declare-fun a_327 () (Array Index Element))
(declare-fun a_328 () (Array Index Element))
(declare-fun a_330 () (Array Index Element))
(declare-fun a_332 () (Array Index Element))
(declare-fun a_334 () (Array Index Element))
(declare-fun a_336 () (Array Index Element))
(declare-fun a_338 () (Array Index Element))
(declare-fun a_340 () (Array Index Element))
(declare-fun a_342 () (Array Index Element))
(declare-fun a_344 () (Array Index Element))
(declare-fun a_346 () (Array Index Element))
(declare-fun a_348 () (Array Index Element))
(declare-fun a_350 () (Array Index Element))
(declare-fun a_352 () (Array Index Element))
(declare-fun a_354 () (Array Index Element))
(declare-fun a_356 () (Array Index Element))
(declare-fun a_358 () (Array Index Element))
(declare-fun a_360 () (Array Index Element))
(declare-fun a_362 () (Array Index Element))
(declare-fun a_364 () (Array Index Element))
(declare-fun e_287 () Element)
(declare-fun e_289 () Element)
(declare-fun e_291 () Element)
(declare-fun e_293 () Element)
(declare-fun e_295 () Element)
(declare-fun e_297 () Element)
(declare-fun e_299 () Element)
(declare-fun e_301 () Element)
(declare-fun e_303 () Element)
(declare-fun e_305 () Element)
(declare-fun e_307 () Element)
(declare-fun e_309 () Element)
(declare-fun e_311 () Element)
(declare-fun e_313 () Element)
(declare-fun e_315 () Element)
(declare-fun e_317 () Element)
(declare-fun e_319 () Element)
(declare-fun e_321 () Element)
(declare-fun e_323 () Element)
(declare-fun e_325 () Element)
(declare-fun e_329 () Element)
(declare-fun e_331 () Element)
(declare-fun e_333 () Element)
(declare-fun e_335 () Element)
(declare-fun e_337 () Element)
(declare-fun e_339 () Element)
(declare-fun e_341 () Element)
(declare-fun e_343 () Element)
(declare-fun e_345 () Element)
(declare-fun e_347 () Element)
(declare-fun e_349 () Element)
(declare-fun e_351 () Element)
(declare-fun e_353 () Element)
(declare-fun e_355 () Element)
(declare-fun e_357 () Element)
(declare-fun e_359 () Element)
(declare-fun e_361 () Element)
(declare-fun e_363 () Element)
(declare-fun a1 () (Array Index Element))
(declare-fun i0 () Index)
(declare-fun i1 () Index)
(declare-fun i3 () Index)
(declare-fun i4 () Index)
(declare-fun i5 () Index)
(declare-fun i6 () Index)
(declare-fun i7 () Index)
(declare-fun i9 () Index)
(assert (= a_288 (store a1 i4 e_287)))
(assert (= a_290 (store a_288 i3 e_289)))
(assert (= a_292 (store a_290 i5 e_291)))
(assert (= a_294 (store a_292 i6 e_293)))
(assert (= a_296 (store a_294 i4 e_295)))
(assert (= a_298 (store a_296 i1 e_297)))
(assert (= a_300 (store a_298 i9 e_299)))
(assert (= a_302 (store a_300 i0 e_301)))
(assert (= a_304 (store a_302 i7 e_303)))
(assert (= a_306 (store a_304 i9 e_305)))
(assert (= a_308 (store a_306 i1 e_307)))
(assert (= a_310 (store a_308 i9 e_309)))
(assert (= a_312 (store a_310 i7 e_311)))
(assert (= a_314 (store a_312 i5 e_313)))
(assert (= a_316 (store a_314 i9 e_315)))
(assert (= a_318 (store a_316 i6 e_317)))
(assert (= a_320 (store a_318 i6 e_319)))
(assert (= a_322 (store a_320 i7 e_321)))
(assert (= a_324 (store a_322 i0 e_323)))
(assert (= a_326 (store a_324 i3 e_325)))
(assert (= a_327 (store a1 i3 e_289)))
(assert (= a_328 (store a_327 i4 e_287)))
(assert (= a_330 (store a_328 i6 e_329)))
(assert (= a_332 (store a_330 i5 e_331)))
(assert (= a_334 (store a_332 i1 e_333)))
(assert (= a_336 (store a_334 i4 e_335)))
(assert (= a_338 (store a_336 i9 e_337)))
(assert (= a_340 (store a_338 i0 e_339)))
(assert (= a_342 (store a_340 i9 e_341)))
(assert (= a_344 (store a_342 i7 e_343)))
(assert (= a_346 (store a_344 i1 e_345)))
(assert (= a_348 (store a_346 i9 e_347)))
(assert (= a_350 (store a_348 i7 e_349)))
(assert (= a_352 (store a_350 i5 e_351)))
(assert (= a_354 (store a_352 i9 e_353)))
(assert (= a_356 (store a_354 i6 e_355)))
(assert (= a_358 (store a_356 i6 e_357)))
(assert (= a_360 (store a_358 i7 e_359)))
(assert (= a_362 (store a_360 i0 e_361)))
(assert (= a_364 (store a_362 i3 e_363)))
(assert (= e_287 (select a1 i3)))
(assert (= e_289 (select a1 i4)))
(assert (= e_291 (select a_290 i6)))
(assert (= e_293 (select a_290 i5)))
(assert (= e_295 (select a_294 i1)))
(assert (= e_297 (select a_294 i4)))
(assert (= e_299 (select a_298 i0)))
(assert (= e_301 (select a_298 i9)))
(assert (= e_303 (select a_302 i9)))
(assert (= e_305 (select a_302 i7)))
(assert (= e_307 (select a_306 i9)))
(assert (= e_309 (select a_306 i1)))
(assert (= e_311 (select a_310 i5)))
(assert (= e_313 (select a_310 i7)))
(assert (= e_315 (select a_314 i6)))
(assert (= e_317 (select a_314 i9)))
(assert (= e_319 (select a_318 i7)))
(assert (= e_321 (select a_318 i6)))
(assert (= e_323 (select a_322 i3)))
(assert (= e_325 (select a_322 i0)))
(assert (= e_329 (select a_328 i5)))
(assert (= e_331 (select a_328 i6)))
(assert (= e_333 (select a_332 i4)))
(assert (= e_335 (select a_332 i1)))
(assert (= e_337 (select a_336 i0)))
(assert (= e_339 (select a_336 i9)))
(assert (= e_341 (select a_340 i7)))
(assert (= e_343 (select a_340 i9)))
(assert (= e_345 (select a_344 i9)))
(assert (= e_347 (select a_344 i1)))
(assert (= e_349 (select a_348 i5)))
(assert (= e_351 (select a_348 i7)))
(assert (= e_353 (select a_352 i6)))
(assert (= e_355 (select a_352 i9)))
(assert (= e_357 (select a_356 i7)))
(assert (= e_359 (select a_356 i6)))
(assert (= e_361 (select a_360 i3)))
(assert (= e_363 (select a_360 i0)))
(assert (not (= a_326 a_364)))
(check-sat)
(exit)
